[[273881,5969467,56724914,268182749,488199413,553458491,590253108,645885730,692231696,749375247,796948325,833523676,899683579,974083809],[10309146,90024170,154649474,205833528,260479787,556848802,605239550,673570427,734837444,759585529,797429306,835595245,926509927,972501576],[62622238,160545433,212854333,273437577,388155241,440342565,515111873,571811436,632147771,693183808,766084831,800199097,903722549,954481195],[63530088,176750242,219390769,297688535,391796692,440670104,516438491,576066437,635325627,715804572,767660199,810987938,907889722,949970768],[74930784,185489096,231779694,314282302,399513040,451293411,527210532,579491364,639442135,719925630,773111881,815867043,913442868,944605364],[121449557,205437284,259491019,319428814,341111629,357915090,407585305,417445747,464273198,476691087,528065248,541634076,589635634,611452932,676860803],[46657026,101185644,203995979,207659617,267058550,327640335,403857021,437313477,487195041,749112129,791760900,797645767,864079663,938864215,957567427]]